0000000000000000
0000000000000000
0001111111111000
0001111111111000
0000000000111000
0000000000111000
0000000000111000
0000000000111000
0001111111111100
0001111111111100
0000000000000000
0000000000000000
0000000000000000
0000000000000000
0000000000000000
0000000000000000